regions = [
  (r_type: Empty, total: 0),
  (r_type: TotalEquals, total: 3),
  (r_type: Empty, total: 0),
  (r_type: Equal, total: 0),
  (r_type: TotalEquals, total: 6),
  (r_type: TotalEquals, total: 6),
];

grid = [|
  0, 1, 2 |
  0, 0, 3 |
  4, 4, 4 |
  5, 6, 0 |
  5, 6, 0
|];

dominoes = [|
  4, 0 |
  3, 4 |
  1, 6 |
  4, 1 |
  5, 4
|];
